WARNING: for repeatability, setting FPU to use double precision
============================[ Problem Statistics ]=============================
|                                                                             |
|  Number of variables:           100                                         |
|  Number of clauses:             449                                         |
|  Parse time:                   0.00 s                                       |
|  Eliminated clauses:           0.00 Mb                                      |
|  Simplification time:          0.00 s                                       |
|                                                                             |
============================[ Search Statistics ]==============================
| Conflicts |          ORIGINAL         |          LEARNT          | Progress |
|           |    Vars  Clauses Literals |    Limit  Clauses Lit/Cl |          |
===============================================================================
|       100 |      98      447     1361 |      163      100      7 |  0.010 % |
===============================================================================
restarts              : 3
conflicts             : 233            (70821 /sec)
decisions             : 305            (0.00 % random) (92705 /sec)
propagations          : 5437           (1652584 /sec)
conflict literals     : 1500           (21.51 % deleted)
Memory used           : 13.00 MB
CPU time              : 0.00329 s

SATISFIABLE
